p cnf 23 46
a 18 5 0
e 1 2 3 4 6 7 8 9 10 11 12 13 14 15 16 17 19 20 21 22 23 0
-3 -1 0
-3 2 0
1 -2 3 0
-4 -5 -6 0
4 5 -6 0
-4 5 6 0
4 -5 6 0
9 -7 0
9 8 0
7 -8 -9 0
6 9 -10 0
-6 -9 -10 0
6 -9 10 0
-6 9 10 0
-11 3 0
-11 10 0
-3 -10 11 0
-12 13 0
12 13 0
16 15 0
16 -1 0
-15 1 -16 0
17 14 0
17 -16 0
-14 16 -17 0
19 -4 0
19 5 0
4 -5 -19 0
20 18 0
20 19 0
-18 -19 -20 0
21 17 0
21 20 0
-17 -20 -21 0
-22 13 0
-22 21 0
-13 -21 22 0
11 -22 -23 0
-11 22 -23 0
11 22 23 0
-11 -22 23 0
-19 -5 -12 17 0
-21 -18 6 0
-10 -8 14 17 -18 -22 0
22 3 0
23 0
